# vtk DataFile Version 3.0
3-D Example       at increment:       1,        load:  1
ASCII
DATASET UNSTRUCTURED_GRID
POINTS 12 FLOAT
7.6554951122e-03 4.7132850099e-02 0.0000000000e+00
1.0064107732e+00 4.7132850099e-02 0.0000000000e+00
7.6554951122e-03 1.0409314957e+00 0.0000000000e+00
1.0064107732e+00 1.0409314957e+00 0.0000000000e+00
7.6554951122e-03 -2.5570821821e-03 0.0000000000e+00
1.0064107732e+00 -2.5570821821e-03 0.0000000000e+00
7.6554951122e-03 9.9124156343e-01 0.0000000000e+00
1.0064107732e+00 9.9124156343e-01 0.0000000000e+00
7.6554951122e-03 -5.2247014463e-02 0.0000000000e+00
1.0064107732e+00 -5.2247014463e-02 0.0000000000e+00
7.6554951122e-03 9.4155163115e-01 0.0000000000e+00
1.0064107732e+00 9.4155163115e-01 0.0000000000e+00
CELLS 2 10
4 0 1 3 2
4 4 5 7 6
CELL_TYPES 2
9
9
POINT_DATA 12
VECTORS DISP FLOAT
7.6554951122e-03 4.7132850099e-02 0.0000000000e+00
6.4107731994e-03 4.7132850099e-02 0.0000000000e+00
7.6554951122e-03 4.0931495714e-02 0.0000000000e+00
6.4107731994e-03 4.0931495714e-02 0.0000000000e+00
7.6554951122e-03 -2.5570821821e-03 0.0000000000e+00
6.4107731994e-03 -2.5570821821e-03 0.0000000000e+00
7.6554951122e-03 -8.7584365668e-03 0.0000000000e+00
6.4107731994e-03 -8.7584365668e-03 0.0000000000e+00
7.6554951122e-03 -5.2247014463e-02 0.0000000000e+00
6.4107731994e-03 -5.2247014463e-02 0.0000000000e+00
7.6554951122e-03 -5.8448368848e-02 0.0000000000e+00
6.4107731994e-03 -5.8448368848e-02 0.0000000000e+00
CELL_DATA 2
TENSORS STRESS FLOAT
1.4135242976e-10 3.3749661106e-15 0.0000000000e+00
3.3749661106e-15 -6.1414618439e-15 0.0000000000e+00
0.0000000000e+00 0.0000000000e+00 0.0000000000e+00

1.4137446769e-10 1.0484017460e-14 0.0000000000e+00
1.0484017460e-14 3.9923820875e-14 0.0000000000e+00
0.0000000000e+00 0.0000000000e+00 0.0000000000e+00

