<?xml version="1.0"?>
<VTKFile type="UnstructuredGrid" version="0.1" byte_order="LittleEndian">
   <UnstructuredGrid>
      <Piece NumberOfPoints="12" NumberOfCells="2">
         <Points>
            <DataArray type="Float32" NumberOfComponents="3" format="ascii">
               0.0000000000e+00 0.0000000000e+00 0.0000000000e+00
               1.0000000000e+00 0.0000000000e+00 0.0000000000e+00
               0.0000000000e+00 1.0000000000e+00 0.0000000000e+00
               1.0000000000e+00 1.0000000000e+00 0.0000000000e+00
               0.0000000000e+00 0.0000000000e+00 5.0000000000e-01
               1.0000000000e+00 0.0000000000e+00 5.0000000000e-01
               0.0000000000e+00 1.0000000000e+00 5.0000000000e-01
               1.0000000000e+00 1.0000000000e+00 5.0000000000e-01
               0.0000000000e+00 0.0000000000e+00 1.0000000000e+00
               1.0000000000e+00 0.0000000000e+00 1.0000000000e+00
               0.0000000000e+00 1.0000000000e+00 1.0000000000e+00
               1.0000000000e+00 1.0000000000e+00 1.0000000000e+00
            </DataArray>
         </Points>
         <Cells>
            <DataArray type="Int32" Name="connectivity" format="ascii">
               0 1 3 2 4 5 7 6
               4 5 7 6 8 9 11 10
            </DataArray>
            <DataArray type="Int32" Name="offsets" format="ascii">
               8
               16
            </DataArray>
            <DataArray type="UInt8" Name="types" format="ascii">
               12
               12
            </DataArray>
         </Cells>
         <PointData>
            <DataArray type="Float32" Name="Disp" NumberOfComponents="3" ComponentName0="x" ComponentName1="y" ComponentName2="z" format="ascii">
               0.0000000000e+00 0.0000000000e+00 0.0000000000e+00
               0.0000000000e+00 0.0000000000e+00 0.0000000000e+00
               0.0000000000e+00 0.0000000000e+00 0.0000000000e+00
               0.0000000000e+00 0.0000000000e+00 0.0000000000e+00
               0.0000000000e+00 0.0000000000e+00 0.0000000000e+00
               0.0000000000e+00 0.0000000000e+00 0.0000000000e+00
               0.0000000000e+00 0.0000000000e+00 0.0000000000e+00
               0.0000000000e+00 0.0000000000e+00 0.0000000000e+00
               0.0000000000e+00 0.0000000000e+00 0.0000000000e+00
               0.0000000000e+00 0.0000000000e+00 0.0000000000e+00
               0.0000000000e+00 0.0000000000e+00 0.0000000000e+00
               0.0000000000e+00 0.0000000000e+00 0.0000000000e+00
            </DataArray>
            <DataArray type="Int32" Name="Boundary" NumberOfComponents="1" ComponentName0="BC_Value" format="ascii">
               4
               4
               4
               4
               4
               4
               4
               4
               4
               4
               4
               4
            </DataArray>
         </PointData>
         <CellData>
            <DataArray type="Float32" Name="Stress" NumberOfComponents="7" ComponentName0="xx" ComponentName1="xy" ComponentName2="xz" ComponentName3="yy" ComponentName4="yz" ComponentName5="zz" ComponentName6="pressure" format="ascii">
               0.0000000000e+00 -1.3877787808e-15 1.9259299444e-32 -2.7755575616e-15 -4.3368086899e-16 0.0000000000e+00 -9.2518585385e-16 
               0.0000000000e+00 -1.3877787808e-15 3.8518598888e-32 -2.7755575616e-15 -8.6736173799e-16 0.0000000000e+00 -9.2518585385e-16 
            </DataArray>
            <DataArray type="Float32" Name="E(Lagrangian)" NumberOfComponents="9" ComponentName0="xx" ComponentName1="xy" ComponentName2="xz" ComponentName3="yx" ComponentName4="yy" ComponentName5="yz" ComponentName6="zx" ComponentName7="zy" ComponentName8="zz" format="ascii">
               0.00000e+00 -6.93889e-18 0.00000e+00 -6.93889e-18 0.00000e+00 -2.16840e-18 0.00000e+00 -2.16840e-18 0.00000e+00
               0.00000e+00 -6.93889e-18 0.00000e+00 -6.93889e-18 0.00000e+00 -4.33681e-18 0.00000e+00 -4.33681e-18 0.00000e+00
            </DataArray>
         </CellData>
      </Piece>
   </UnstructuredGrid>
</VTKFile>
