# vtk DataFile Version 3.0
2-D Example       at increment:       3,        load:  3
ASCII
DATASET UNSTRUCTURED_GRID
POINTS 4 FLOAT
0.0000000000e+00 0.0000000000e+00 0.0000000000e+00
9.1131752536e-01 0.0000000000e+00 0.0000000000e+00
9.1131752536e-01 1.3000000000e+00 0.0000000000e+00
0.0000000000e+00 1.3000000000e+00 0.0000000000e+00
CELLS 1 5
4 0 1 2 3
CELL_TYPES 1
9
POINT_DATA 4
VECTORS DISP FLOAT
0.0000000000e+00 0.0000000000e+00 0.0000000000e+00
-8.8682474639e-02 0.0000000000e+00 0.0000000000e+00
-8.8682474639e-02 3.0000000000e-01 0.0000000000e+00
0.0000000000e+00 3.0000000000e-01 0.0000000000e+00
CELL_DATA 1
TENSORS STRESS FLOAT
-2.1649348980e-13 0.0000000000e+00 0.0000000000e+00
0.0000000000e+00 2.9019704365e-01 0.0000000000e+00
0.0000000000e+00 0.0000000000e+00 0.0000000000e+00

