# vtk DataFile Version 3.0
2-D Example       at increment:       1,        load:  1
ASCII
DATASET UNSTRUCTURED_GRID
POINTS 4 FLOAT
0.0000000000e+00 0.0000000000e+00 0.0000000000e+00
9.6806365993e-01 0.0000000000e+00 0.0000000000e+00
9.6806365993e-01 1.1000000000e+00 0.0000000000e+00
0.0000000000e+00 1.1000000000e+00 0.0000000000e+00
CELLS 1 5
4 0 1 2 3
CELL_TYPES 1
9
POINT_DATA 4
VECTORS DISP FLOAT
0.0000000000e+00 0.0000000000e+00 0.0000000000e+00
-3.1936340072e-02 0.0000000000e+00 0.0000000000e+00
-3.1936340072e-02 1.0000000000e-01 0.0000000000e+00
0.0000000000e+00 1.0000000000e-01 0.0000000000e+00
CELL_DATA 1
TENSORS STRESS FLOAT
-4.4191039716e-13 0.0000000000e+00 0.0000000000e+00
0.0000000000e+00 1.0249241454e-01 0.0000000000e+00
0.0000000000e+00 0.0000000000e+00 0.0000000000e+00

