# vtk DataFile Version 3.0
2-D Example       at increment:       2,        load:  2
ASCII
DATASET UNSTRUCTURED_GRID
POINTS 4 FLOAT
0.0000000000e+00 0.0000000000e+00 0.0000000000e+00
9.3862526953e-01 0.0000000000e+00 0.0000000000e+00
9.3862526953e-01 1.2000000000e+00 0.0000000000e+00
0.0000000000e+00 1.2000000000e+00 0.0000000000e+00
CELLS 1 5
4 0 1 2 3
CELL_TYPES 1
9
POINT_DATA 4
VECTORS DISP FLOAT
0.0000000000e+00 0.0000000000e+00 0.0000000000e+00
-6.1374730466e-02 0.0000000000e+00 0.0000000000e+00
-6.1374730466e-02 2.0000000000e-01 0.0000000000e+00
0.0000000000e+00 2.0000000000e-01 0.0000000000e+00
CELL_DATA 1
TENSORS STRESS FLOAT
-3.0290353559e-13 0.0000000000e+00 0.0000000000e+00
0.0000000000e+00 1.9851109970e-01 0.0000000000e+00
0.0000000000e+00 0.0000000000e+00 0.0000000000e+00

