<?xml version="1.0"?>
<VTKFile type="UnstructuredGrid" version="0.1" byte_order="LittleEndian">
   <UnstructuredGrid>
      <Piece NumberOfPoints="8" NumberOfCells="1">
         <Points>
            <DataArray type="Float32" NumberOfComponents="3" format="ascii">
               0.0000000000e+00 0.0000000000e+00 0.0000000000e+00
               0.0000000000e+00 0.0000000000e+00 9.9014321447e-01
               9.9014321447e-01 0.0000000000e+00 9.9014321447e-01
               9.9014321447e-01 0.0000000000e+00 0.0000000000e+00
               0.0000000000e+00 1.0400000000e+00 0.0000000000e+00
               0.0000000000e+00 1.0400000000e+00 9.9014321447e-01
               9.9014321447e-01 1.0400000000e+00 9.9014321447e-01
               9.9014321447e-01 1.0400000000e+00 0.0000000000e+00
            </DataArray>
         </Points>
         <Cells>
            <DataArray type="Int32" Name="connectivity" format="ascii">
               0 1 2 3 4 5 6 7
            </DataArray>
            <DataArray type="Int32" Name="offsets" format="ascii">
               8
            </DataArray>
            <DataArray type="UInt8" Name="types" format="ascii">
               12
            </DataArray>
         </Cells>
         <PointData>
            <DataArray type="Float32" Name="Disp" NumberOfComponents="3" ComponentName0="x" ComponentName1="y" ComponentName2="z" format="ascii">
               0.0000000000e+00 0.0000000000e+00 0.0000000000e+00
               0.0000000000e+00 0.0000000000e+00 -9.8567855322e-03
               -9.8567855322e-03 0.0000000000e+00 -9.8567855322e-03
               -9.8567855322e-03 0.0000000000e+00 0.0000000000e+00
               0.0000000000e+00 4.0000000000e-02 0.0000000000e+00
               0.0000000000e+00 4.0000000000e-02 -9.8567855322e-03
               -9.8567855322e-03 4.0000000000e-02 -9.8567855322e-03
               -9.8567855322e-03 4.0000000000e-02 0.0000000000e+00
            </DataArray>
            <DataArray type="Int32" Name="Boundary" NumberOfComponents="1" ComponentName0="BC_Value" format="ascii">
               7
               3
               2
               6
               7
               3
               2
               6
            </DataArray>
         </PointData>
         <CellData>
            <DataArray type="Float32" Name="Stress" NumberOfComponents="7" ComponentName0="xx" ComponentName1="xy" ComponentName2="xz" ComponentName3="yy" ComponentName4="yz" ComponentName5="zz" ComponentName6="pressure" format="ascii">
               3.1710313159e-06 0.0000000000e+00 2.6607207917e-15 9.7994598993e+00 -1.7466852162e-15 3.1710313104e-06 3.2664887471e+00 
            </DataArray>
            <DataArray type="Float32" Name="E(Lagrangian)" NumberOfComponents="9" ComponentName0="xx" ComponentName1="xy" ComponentName2="xz" ComponentName3="yx" ComponentName4="yy" ComponentName5="yz" ComponentName6="zx" ComponentName7="zy" ComponentName8="zz" format="ascii">
               -9.80821e-03 -4.33334e-34 1.37410e-17 -4.33334e-34 4.08000e-02 -1.54586e-17 1.37410e-17 -1.54586e-17 -9.80821e-03
            </DataArray>
         </CellData>
      </Piece>
   </UnstructuredGrid>
</VTKFile>
