<?xml version="1.0"?>
<VTKFile type="UnstructuredGrid" version="0.1" byte_order="LittleEndian">
   <UnstructuredGrid>
      <Piece NumberOfPoints="8" NumberOfCells="1">
         <Points>
            <DataArray type="Float32" NumberOfComponents="3" format="ascii">
               0.0000000000e+00 0.0000000000e+00 0.0000000000e+00
               0.0000000000e+00 0.0000000000e+00 1.0000000000e+00
               1.0000000000e+00 0.0000000000e+00 1.0000000000e+00
               1.0000000000e+00 0.0000000000e+00 0.0000000000e+00
               0.0000000000e+00 1.0000000000e+00 0.0000000000e+00
               0.0000000000e+00 1.0000000000e+00 1.0000000000e+00
               1.0000000000e+00 1.0000000000e+00 1.0000000000e+00
               1.0000000000e+00 1.0000000000e+00 0.0000000000e+00
            </DataArray>
         </Points>
         <Cells>
            <DataArray type="Int32" Name="connectivity" format="ascii">
               0 1 2 3 4 5 6 7
            </DataArray>
            <DataArray type="Int32" Name="offsets" format="ascii">
               8
            </DataArray>
            <DataArray type="UInt8" Name="types" format="ascii">
               12
            </DataArray>
         </Cells>
         <PointData>
            <DataArray type="Float32" Name="Disp" NumberOfComponents="3" ComponentName0="x" ComponentName1="y" ComponentName2="z" format="ascii">
               0.0000000000e+00 0.0000000000e+00 0.0000000000e+00
               0.0000000000e+00 0.0000000000e+00 0.0000000000e+00
               0.0000000000e+00 0.0000000000e+00 0.0000000000e+00
               0.0000000000e+00 0.0000000000e+00 0.0000000000e+00
               0.0000000000e+00 0.0000000000e+00 0.0000000000e+00
               0.0000000000e+00 0.0000000000e+00 0.0000000000e+00
               0.0000000000e+00 0.0000000000e+00 0.0000000000e+00
               0.0000000000e+00 0.0000000000e+00 0.0000000000e+00
            </DataArray>
            <DataArray type="Int32" Name="Boundary" NumberOfComponents="1" ComponentName0="BC_Value" format="ascii">
               7
               3
               2
               6
               7
               3
               2
               6
            </DataArray>
         </PointData>
         <CellData>
            <DataArray type="Float32" Name="Stress" NumberOfComponents="7" ComponentName0="xx" ComponentName1="xy" ComponentName2="xz" ComponentName3="yy" ComponentName4="yz" ComponentName5="zz" ComponentName6="pressure" format="ascii">
               0.0000000000e+00 0.0000000000e+00 0.0000000000e+00 0.0000000000e+00 -5.2041704279e-16 0.0000000000e+00 0.0000000000e+00 
            </DataArray>
            <DataArray type="Float32" Name="E(Lagrangian)" NumberOfComponents="9" ComponentName0="xx" ComponentName1="xy" ComponentName2="xz" ComponentName3="yx" ComponentName4="yy" ComponentName5="yz" ComponentName6="zx" ComponentName7="zy" ComponentName8="zz" format="ascii">
               0.00000e+00 0.00000e+00 0.00000e+00 0.00000e+00 0.00000e+00 -4.33681e-18 0.00000e+00 -4.33681e-18 0.00000e+00
            </DataArray>
         </CellData>
      </Piece>
   </UnstructuredGrid>
</VTKFile>
