# vtk DataFile Version 3.0
3-D Example       at increment:       1,        load:  1
ASCII
DATASET UNSTRUCTURED_GRID
POINTS 8 FLOAT
0.0000000000e+00 0.0000000000e+00 0.0000000000e+00
0.0000000000e+00 0.0000000000e+00 0.0000000000e+00
9.9014321447e-01 0.0000000000e+00 0.0000000000e+00
9.9014321447e-01 0.0000000000e+00 0.0000000000e+00
0.0000000000e+00 1.0400000000e+00 0.0000000000e+00
0.0000000000e+00 1.0400000000e+00 0.0000000000e+00
9.9014321447e-01 1.0400000000e+00 0.0000000000e+00
9.9014321447e-01 1.0400000000e+00 0.0000000000e+00
CELLS 1 5
4 0 1 2 3
CELL_TYPES 1
9
POINT_DATA 8
VECTORS DISP FLOAT
0.0000000000e+00 0.0000000000e+00 0.0000000000e+00
0.0000000000e+00 0.0000000000e+00 0.0000000000e+00
-9.8567855322e-03 0.0000000000e+00 0.0000000000e+00
-9.8567855322e-03 0.0000000000e+00 0.0000000000e+00
0.0000000000e+00 4.0000000000e-02 0.0000000000e+00
0.0000000000e+00 4.0000000000e-02 0.0000000000e+00
-9.8567855322e-03 4.0000000000e-02 0.0000000000e+00
-9.8567855322e-03 4.0000000000e-02 0.0000000000e+00
CELL_DATA 1
TENSORS STRESS FLOAT
3.1710313162e-06 0.0000000000e+00 0.0000000000e+00
0.0000000000e+00 0.0000000000e+00 0.0000000000e+00
0.0000000000e+00 0.0000000000e+00 0.0000000000e+00

